************************************************************************
file with basedata            : cm161_.bas
initial value random generator: 1733052855
************************************************************************
projects                      :  1
jobs (incl. supersource/sink ):  18
horizon                       :  109
RESOURCES
  - renewable                 :  2   R
  - nonrenewable              :  2   N
  - doubly constrained        :  0   D
************************************************************************
PROJECT INFORMATION:
pronr.  #jobs rel.date duedate tardcost  MPM-Time
    1     16      0       43       14       43
************************************************************************
PRECEDENCE RELATIONS:
jobnr.    #modes  #successors   successors
   1        1          3           2   3   4
   2        1          3           5   6  16
   3        1          3           9  10  11
   4        1          2          12  13
   5        1          3           8  10  11
   6        1          2           7   8
   7        1          3          11  12  15
   8        1          2           9  13
   9        1          3          12  14  15
  10        1          1          13
  11        1          1          14
  12        1          1          17
  13        1          2          14  15
  14        1          1          17
  15        1          1          18
  16        1          1          18
  17        1          1          18
  18        1          0        
************************************************************************
REQUESTS/DURATIONS:
jobnr. mode duration  R 1  R 2  N 1  N 2
------------------------------------------------------------------------
  1      1     0       0    0    0    0
  2      1     8       4    8    8    5
  3      1     9       8    6    5    5
  4      1     6      10    2    6    3
  5      1     9       8    7   10    9
  6      1     4       4    5    5    6
  7      1     6       6    5    5    9
  8      1     6       4    1    5    8
  9      1     9       2    9    4    4
 10      1     6       7    8    4    2
 11      1     4       5    4    9    1
 12      1     6       6    9    5    9
 13      1     7       8    8   10    4
 14      1     8       4    2    5    3
 15      1    10       4    5    3    6
 16      1     8       9    8    4    4
 17      1     3       4    6    5    8
 18      1     0       0    0    0    0
************************************************************************
RESOURCEAVAILABILITIES:
  R 1  R 2  N 1  N 2
   15   13   93   86
************************************************************************
